100 152138
78 59 90 55 73 43 86 52 2 17 98 75 64 70 15 30 58 19 42 97 27 48 22 24 76 46 88 87 81 20 94 18 40 91 84 38 66 89 23 80 4 34 44 47 83 61 99 10 68 32 53 36 56 60 6 16 8 11 13 96 12 67 85 77 71 69 35 41 72 63 45 82 26 74 9 7 79 5 3 33 62 14 1 49 25 54 65 51 28 92 31 39 37 93 95 50 100 29 57 21 
